============================[ Problem Statistics ]=============================|                                                                             ||  Number of variables:          4242                                         ||  Number of clauses:            9856                                         ||  Parse time:                   0.27 s                                       ||                                                                             |============================[ Search Statistics ]==============================| Conflicts |          ORIGINAL         |          LEARNT          | Progress ||           |    Vars  Clauses Literals |    Limit  Clauses Lit/Cl |          |===============================================================================|       100 |    1591     6061   390452 |     2222      100     53 | 62.501 % |===============================================================================restarts              : 2conflicts             : 151            (365 /sec)decisions             : 322            (0.00 % random) (778 /sec)propagations          : 9959           (24056 /sec)conflict literals     : 9787           (95.40 % deleted)CPU time              : 0.414 sSATISFIABLE